(declare-const delta_j Int)
(declare-const delta_b Int)
(declare-const delta_n Int)
(declare-const delta_i Int)
(assert (exists
         ((|n'?1| Int) (|j'?2| Int) (|i'?3| Int) (|b'?4| Int) (phi_j?5 Int)
            (phi_i?6 Int) (b?7 Int) (i?8 Int) (k?9 Int) (n?10 Int) (j?11 Int))
         (and (< (- k?9) 0) (<= (- n?10) 0) (= (+ k?9 -100) 0)
                (< (+ n?10 (* -2 k?9)) 0)
                (or (and (or (< b?7 0) (< 0 b?7)) (= (+ (- phi_i?6) i?8 1) 0)
                           (= (+ (- phi_j?5) j?11) 0))
                      (and (= b?7 0) (= (+ (- phi_i?6) i?8) 0)
                             (= (+ (- phi_j?5) j?11 1) 0)))
                (= (+ |n'?1| (- n?10) -1) 0) (= (+ |j'?2| (- phi_j?5)) 0)
                (= (+ |i'?3| (- phi_i?6)) 0)
                (= (+ (- (ite (= b?7 0) 1 0)) |b'?4|) 0)
                (= delta_b (+ |b'?4| (- b?7))) (= delta_i (+ |i'?3| (- i?8)))
                (= delta_j (+ |j'?2| (- j?11)))
                (= delta_n (+ |n'?1| (- n?10))))))
(check-sat)
